p tdp 33 64
4 5
28 31
19 20
15 21
2 28
30 33
16 22
13 14
23 25
7 11
20 31
27 31
5 24
18 30
7 29
1 33
2 16
9 29
8 17
3 21
4 32
13 29
10 25
16 30
16 25
4 12
15 22
12 26
2 6
26 33
6 13
17 27
15 20
2 20
5 22
12 32
26 27
25 33
5 33
25 28
22 25
4 13
5 30
1 8
19 32
19 22
14 29
10 31
22 31
17 24
7 18
24 25
7 13
12 25
24 33
19 29
16 27
4 15
11 13
1 9
1 21
2 17
2 18
3 24
